c Reduced graph for DSJC125.5gb generated by Cyril Grelier
p edge 125 3891
e 1 2
e 1 3
e 1 4
e 1 5
e 1 6
e 1 7
e 1 8
e 1 9
e 1 11
e 1 16
e 1 17
e 1 20
e 1 22
e 1 23
e 1 25
e 1 26
e 1 27
e 1 29
e 1 31
e 1 34
e 1 41
e 1 43
e 1 44
e 1 47
e 1 48
e 1 53
e 1 55
e 1 58
e 1 60
e 1 61
e 1 62
e 1 64
e 1 65
e 1 66
e 1 68
e 1 71
e 1 73
e 1 74
e 1 75
e 1 77
e 1 78
e 1 79
e 1 80
e 1 82
e 1 83
e 1 85
e 1 87
e 1 88
e 1 89
e 1 90
e 1 93
e 1 94
e 1 96
e 1 99
e 1 100
e 1 102
e 1 103
e 1 104
e 1 105
e 1 106
e 1 107
e 1 108
e 1 110
e 1 111
e 1 114
e 1 117
e 1 119
e 1 121
e 1 122
e 1 124
e 1 125
e 2 5
e 2 7
e 2 8
e 2 10
e 2 11
e 2 14
e 2 16
e 2 18
e 2 21
e 2 22
e 2 23
e 2 24
e 2 25
e 2 28
e 2 30
e 2 31
e 2 33
e 2 35
e 2 36
e 2 37
e 2 39
e 2 40
e 2 41
e 2 43
e 2 48
e 2 49
e 2 51
e 2 54
e 2 55
e 2 58
e 2 59
e 2 63
e 2 66
e 2 68
e 2 70
e 2 72
e 2 73
e 2 74
e 2 75
e 2 77
e 2 80
e 2 81
e 2 82
e 2 85
e 2 87
e 2 88
e 2 89
e 2 90
e 2 91
e 2 92
e 2 95
e 2 96
e 2 98
e 2 100
e 2 102
e 2 105
e 2 106
e 2 108
e 2 109
e 2 112
e 2 113
e 2 118
e 2 122
e 2 123
e 2 124
e 2 125
e 3 4
e 3 10
e 3 11
e 3 13
e 3 14
e 3 16
e 3 17
e 3 19
e 3 22
e 3 23
e 3 24
e 3 26
e 3 28
e 3 32
e 3 35
e 3 36
e 3 37
e 3 38
e 3 39
e 3 40
e 3 42
e 3 48
e 3 50
e 3 54
e 3 56
e 3 57
e 3 59
e 3 60
e 3 61
e 3 64
e 3 66
e 3 70
e 3 73
e 3 75
e 3 76
e 3 80
e 3 81
e 3 82
e 3 84
e 3 88
e 3 89
e 3 91
e 3 96
e 3 97
e 3 98
e 3 99
e 3 100
e 3 101
e 3 103
e 3 105
e 3 107
e 3 108
e 3 109
e 3 114
e 3 115
e 3 116
e 3 117
e 3 121
e 3 122
e 4 5
e 4 11
e 4 12
e 4 13
e 4 15
e 4 17
e 4 20
e 4 21
e 4 23
e 4 27
e 4 30
e 4 31
e 4 35
e 4 39
e 4 41
e 4 42
e 4 45
e 4 47
e 4 48
e 4 51
e 4 53
e 4 55
e 4 56
e 4 59
e 4 60
e 4 65
e 4 66
e 4 67
e 4 68
e 4 72
e 4 74
e 4 75
e 4 76
e 4 78
e 4 80
e 4 81
e 4 82
e 4 83
e 4 88
e 4 90
e 4 92
e 4 94
e 4 95
e 4 96
e 4 99
e 4 100
e 4 101
e 4 105
e 4 106
e 4 107
e 4 113
e 4 117
e 4 119
e 4 122
e 4 124
e 4 125
e 5 10
e 5 11
e 5 16
e 5 19
e 5 21
e 5 27
e 5 28
e 5 29
e 5 30
e 5 32
e 5 36
e 5 39
e 5 43
e 5 45
e 5 46
e 5 49
e 5 50
e 5 53
e 5 54
e 5 58
e 5 60
e 5 62
e 5 67
e 5 69
e 5 70
e 5 71
e 5 72
e 5 73
e 5 74
e 5 76
e 5 77
e 5 78
e 5 80
e 5 82
e 5 86
e 5 88
e 5 95
e 5 96
e 5 98
e 5 100
e 5 102
e 5 105
e 5 106
e 5 107
e 5 110
e 5 112
e 5 113
e 5 115
e 5 116
e 5 118
e 5 121
e 5 122
e 5 124
e 5 125
e 6 7
e 6 8
e 6 12
e 6 20
e 6 21
e 6 22
e 6 24
e 6 29
e 6 31
e 6 33
e 6 35
e 6 38
e 6 39
e 6 40
e 6 41
e 6 43
e 6 44
e 6 46
e 6 50
e 6 53
e 6 55
e 6 56
e 6 58
e 6 61
e 6 63
e 6 65
e 6 66
e 6 67
e 6 68
e 6 69
e 6 70
e 6 71
e 6 74
e 6 76
e 6 78
e 6 81
e 6 86
e 6 87
e 6 89
e 6 90
e 6 91
e 6 96
e 6 98
e 6 100
e 6 101
e 6 105
e 6 107
e 6 109
e 6 112
e 6 115
e 6 116
e 6 117
e 6 119
e 6 121
e 6 123
e 7 8
e 7 9
e 7 10
e 7 11
e 7 12
e 7 16
e 7 17
e 7 18
e 7 19
e 7 20
e 7 24
e 7 26
e 7 27
e 7 28
e 7 29
e 7 30
e 7 32
e 7 34
e 7 36
e 7 38
e 7 41
e 7 42
e 7 43
e 7 44
e 7 51
e 7 52
e 7 53
e 7 54
e 7 56
e 7 57
e 7 58
e 7 59
e 7 60
e 7 66
e 7 68
e 7 71
e 7 72
e 7 74
e 7 76
e 7 77
e 7 79
e 7 82
e 7 85
e 7 87
e 7 88
e 7 89
e 7 90
e 7 91
e 7 92
e 7 93
e 7 94
e 7 95
e 7 97
e 7 98
e 7 101
e 7 107
e 7 110
e 7 111
e 7 114
e 7 116
e 7 118
e 7 119
e 7 120
e 7 122
e 7 123
e 7 124
e 8 9
e 8 11
e 8 13
e 8 14
e 8 16
e 8 17
e 8 18
e 8 20
e 8 22
e 8 23
e 8 24
e 8 29
e 8 31
e 8 32
e 8 33
e 8 35
e 8 37
e 8 43
e 8 44
e 8 46
e 8 47
e 8 48
e 8 49
e 8 51
e 8 54
e 8 55
e 8 57
e 8 58
e 8 59
e 8 60
e 8 63
e 8 69
e 8 70
e 8 71
e 8 72
e 8 73
e 8 75
e 8 81
e 8 83
e 8 84
e 8 86
e 8 87
e 8 89
e 8 90
e 8 91
e 8 92
e 8 93
e 8 95
e 8 96
e 8 100
e 8 101
e 8 102
e 8 103
e 8 104
e 8 107
e 8 108
e 8 110
e 8 111
e 8 113
e 8 114
e 8 120
e 8 121
e 8 124
e 9 11
e 9 12
e 9 13
e 9 14
e 9 15
e 9 16
e 9 18
e 9 22
e 9 24
e 9 27
e 9 28
e 9 32
e 9 34
e 9 36
e 9 37
e 9 39
e 9 40
e 9 42
e 9 45
e 9 46
e 9 47
e 9 49
e 9 50
e 9 51
e 9 56
e 9 58
e 9 59
e 9 63
e 9 65
e 9 66
e 9 70
e 9 73
e 9 74
e 9 75
e 9 76
e 9 80
e 9 84
e 9 85
e 9 86
e 9 88
e 9 91
e 9 92
e 9 94
e 9 97
e 9 99
e 9 103
e 9 104
e 9 105
e 9 107
e 9 108
e 9 109
e 9 110
e 9 111
e 9 112
e 9 114
e 9 115
e 9 117
e 9 118
e 9 120
e 9 123
e 9 124
e 10 11
e 10 14
e 10 16
e 10 18
e 10 19
e 10 20
e 10 21
e 10 22
e 10 23
e 10 24
e 10 25
e 10 28
e 10 29
e 10 31
e 10 32
e 10 33
e 10 34
e 10 35
e 10 36
e 10 39
e 10 40
e 10 42
e 10 43
e 10 44
e 10 46
e 10 52
e 10 53
e 10 54
e 10 55
e 10 56
e 10 57
e 10 59
e 10 60
e 10 63
e 10 64
e 10 66
e 10 67
e 10 69
e 10 71
e 10 72
e 10 73
e 10 74
e 10 75
e 10 88
e 10 91
e 10 95
e 10 98
e 10 102
e 10 103
e 10 104
e 10 106
e 10 108
e 10 110
e 10 115
e 10 116
e 10 120
e 10 121
e 10 122
e 10 125
e 11 12
e 11 14
e 11 16
e 11 17
e 11 18
e 11 20
e 11 21
e 11 24
e 11 25
e 11 30
e 11 32
e 11 36
e 11 38
e 11 39
e 11 40
e 11 41
e 11 45
e 11 47
e 11 51
e 11 53
e 11 55
e 11 60
e 11 61
e 11 64
e 11 65
e 11 66
e 11 68
e 11 69
e 11 70
e 11 74
e 11 76
e 11 77
e 11 78
e 11 80
e 11 81
e 11 82
e 11 85
e 11 86
e 11 92
e 11 96
e 11 97
e 11 98
e 11 102
e 11 105
e 11 108
e 11 109
e 11 113
e 11 117
e 11 118
e 11 120
e 11 121
e 11 122
e 11 124
e 12 13
e 12 15
e 12 17
e 12 18
e 12 19
e 12 20
e 12 21
e 12 22
e 12 24
e 12 25
e 12 26
e 12 27
e 12 31
e 12 37
e 12 38
e 12 39
e 12 40
e 12 42
e 12 45
e 12 48
e 12 56
e 12 60
e 12 61
e 12 63
e 12 68
e 12 70
e 12 72
e 12 73
e 12 75
e 12 76
e 12 77
e 12 78
e 12 80
e 12 81
e 12 84
e 12 87
e 12 90
e 12 91
e 12 94
e 12 95
e 12 96
e 12 97
e 12 100
e 12 102
e 12 104
e 12 105
e 12 106
e 12 108
e 12 109
e 12 110
e 12 113
e 12 114
e 12 117
e 12 119
e 12 122
e 12 123
e 13 15
e 13 16
e 13 18
e 13 19
e 13 20
e 13 22
e 13 25
e 13 26
e 13 31
e 13 33
e 13 37
e 13 38
e 13 39
e 13 43
e 13 44
e 13 45
e 13 46
e 13 47
e 13 49
e 13 50
e 13 51
e 13 52
e 13 53
e 13 56
e 13 57
e 13 58
e 13 66
e 13 67
e 13 68
e 13 70
e 13 71
e 13 72
e 13 73
e 13 75
e 13 79
e 13 88
e 13 90
e 13 91
e 13 93
e 13 99
e 13 101
e 13 103
e 13 106
e 13 108
e 13 110
e 13 112
e 13 113
e 13 115
e 13 116
e 13 120
e 13 123
e 13 124
e 14 18
e 14 20
e 14 21
e 14 23
e 14 24
e 14 26
e 14 28
e 14 30
e 14 36
e 14 39
e 14 40
e 14 42
e 14 43
e 14 45
e 14 46
e 14 47
e 14 49
e 14 50
e 14 53
e 14 57
e 14 58
e 14 59
e 14 60
e 14 64
e 14 65
e 14 66
e 14 68
e 14 69
e 14 71
e 14 74
e 14 76
e 14 81
e 14 85
e 14 86
e 14 91
e 14 92
e 14 93
e 14 95
e 14 97
e 14 98
e 14 100
e 14 102
e 14 104
e 14 108
e 14 111
e 14 112
e 14 117
e 14 120
e 14 121
e 14 122
e 15 21
e 15 22
e 15 26
e 15 27
e 15 31
e 15 32
e 15 34
e 15 36
e 15 38
e 15 40
e 15 42
e 15 44
e 15 49
e 15 51
e 15 52
e 15 54
e 15 58
e 15 60
e 15 62
e 15 63
e 15 64
e 15 66
e 15 67
e 15 70
e 15 71
e 15 77
e 15 78
e 15 82
e 15 86
e 15 89
e 15 90
e 15 92
e 15 94
e 15 95
e 15 96
e 15 98
e 15 101
e 15 103
e 15 104
e 15 106
e 15 107
e 15 110
e 15 112
e 15 114
e 15 115
e 15 117
e 15 119
e 15 120
e 15 123
e 16 18
e 16 19
e 16 24
e 16 25
e 16 28
e 16 29
e 16 32
e 16 34
e 16 36
e 16 38
e 16 39
e 16 43
e 16 45
e 16 46
e 16 47
e 16 48
e 16 49
e 16 50
e 16 51
e 16 52
e 16 53
e 16 54
e 16 55
e 16 56
e 16 57
e 16 58
e 16 59
e 16 60
e 16 63
e 16 64
e 16 65
e 16 67
e 16 71
e 16 74
e 16 76
e 16 78
e 16 79
e 16 80
e 16 84
e 16 86
e 16 87
e 16 89
e 16 91
e 16 93
e 16 94
e 16 95
e 16 96
e 16 99
e 16 101
e 16 102
e 16 108
e 16 109
e 16 110
e 16 113
e 16 114
e 16 116
e 16 118
e 16 120
e 16 122
e 16 123
e 16 124
e 16 125
e 17 18
e 17 20
e 17 21
e 17 24
e 17 25
e 17 26
e 17 27
e 17 28
e 17 29
e 17 30
e 17 31
e 17 35
e 17 37
e 17 41
e 17 43
e 17 45
e 17 47
e 17 48
e 17 49
e 17 50
e 17 52
e 17 53
e 17 54
e 17 55
e 17 56
e 17 59
e 17 61
e 17 63
e 17 64
e 17 65
e 17 66
e 17 67
e 17 71
e 17 75
e 17 76
e 17 80
e 17 81
e 17 84
e 17 86
e 17 91
e 17 92
e 17 93
e 17 94
e 17 96
e 17 97
e 17 99
e 17 101
e 17 102
e 17 103
e 17 107
e 17 109
e 17 111
e 17 112
e 17 113
e 17 114
e 17 117
e 17 119
e 17 120
e 17 121
e 17 123
e 18 19
e 18 25
e 18 27
e 18 30
e 18 31
e 18 33
e 18 34
e 18 36
e 18 38
e 18 40
e 18 41
e 18 45
e 18 46
e 18 47
e 18 51
e 18 52
e 18 54
e 18 55
e 18 58
e 18 61
e 18 64
e 18 65
e 18 68
e 18 73
e 18 74
e 18 75
e 18 76
e 18 78
e 18 80
e 18 81
e 18 82
e 18 83
e 18 88
e 18 89
e 18 91
e 18 92
e 18 95
e 18 96
e 18 97
e 18 98
e 18 101
e 18 103
e 18 105
e 18 106
e 18 108
e 18 110
e 18 114
e 18 115
e 18 116
e 18 118
e 18 120
e 18 121
e 18 124
e 19 24
e 19 25
e 19 27
e 19 30
e 19 31
e 19 33
e 19 35
e 19 36
e 19 38
e 19 41
e 19 42
e 19 45
e 19 50
e 19 51
e 19 52
e 19 53
e 19 55
e 19 56
e 19 61
e 19 64
e 19 71
e 19 72
e 19 75
e 19 77
e 19 79
e 19 80
e 19 82
e 19 85
e 19 86
e 19 89
e 19 92
e 19 95
e 19 98
e 19 99
e 19 100
e 19 103
e 19 104
e 19 107
e 19 108
e 19 109
e 19 110
e 19 114
e 19 119
e 19 121
e 19 122
e 19 124
e 20 21
e 20 22
e 20 26
e 20 27
e 20 28
e 20 30
e 20 33
e 20 36
e 20 41
e 20 43
e 20 44
e 20 45
e 20 47
e 20 49
e 20 55
e 20 58
e 20 62
e 20 64
e 20 70
e 20 73
e 20 74
e 20 75
e 20 76
e 20 78
e 20 80
e 20 81
e 20 83
e 20 84
e 20 87
e 20 88
e 20 89
e 20 92
e 20 94
e 20 95
e 20 96
e 20 97
e 20 98
e 20 101
e 20 103
e 20 106
e 20 108
e 20 109
e 20 113
e 20 114
e 20 116
e 20 117
e 20 119
e 20 121
e 20 123
e 20 125
e 21 27
e 21 29
e 21 30
e 21 31
e 21 40
e 21 41
e 21 42
e 21 43
e 21 44
e 21 46
e 21 49
e 21 51
e 21 52
e 21 53
e 21 56
e 21 58
e 21 60
e 21 62
e 21 63
e 21 64
e 21 65
e 21 67
e 21 69
e 21 70
e 21 71
e 21 74
e 21 77
e 21 79
e 21 81
e 21 83
e 21 86
e 21 88
e 21 92
e 21 93
e 21 95
e 21 96
e 21 97
e 21 98
e 21 99
e 21 102
e 21 105
e 21 107
e 21 108
e 21 111
e 21 113
e 21 116
e 21 122
e 21 124
e 21 125
e 22 25
e 22 26
e 22 28
e 22 29
e 22 30
e 22 31
e 22 33
e 22 35
e 22 36
e 22 41
e 22 46
e 22 48
e 22 57
e 22 58
e 22 60
e 22 61
e 22 62
e 22 64
e 22 72
e 22 73
e 22 74
e 22 78
e 22 79
e 22 81
e 22 82
e 22 85
e 22 86
e 22 88
e 22 90
e 22 91
e 22 98
e 22 100
e 22 101
e 22 105
e 22 106
e 22 107
e 22 108
e 22 109
e 22 111
e 22 112
e 22 114
e 22 116
e 22 121
e 22 122
e 22 123
e 22 125
e 23 24
e 23 27
e 23 28
e 23 30
e 23 31
e 23 33
e 23 37
e 23 38
e 23 40
e 23 41
e 23 42
e 23 43
e 23 48
e 23 51
e 23 53
e 23 54
e 23 59
e 23 60
e 23 67
e 23 68
e 23 69
e 23 72
e 23 75
e 23 77
e 23 79
e 23 81
e 23 84
e 23 86
e 23 87
e 23 88
e 23 93
e 23 95
e 23 96
e 23 100
e 23 101
e 23 103
e 23 108
e 23 109
e 23 111
e 23 112
e 23 113
e 23 114
e 23 115
e 23 125
e 24 28
e 24 29
e 24 32
e 24 33
e 24 34
e 24 36
e 24 37
e 24 39
e 24 40
e 24 43
e 24 46
e 24 47
e 24 52
e 24 53
e 24 54
e 24 57
e 24 58
e 24 60
e 24 61
e 24 62
e 24 64
e 24 65
e 24 68
e 24 69
e 24 70
e 24 71
e 24 73
e 24 74
e 24 75
e 24 77
e 24 78
e 24 82
e 24 84
e 24 87
e 24 88
e 24 89
e 24 90
e 24 94
e 24 95
e 24 96
e 24 97
e 24 98
e 24 100
e 24 102
e 24 103
e 24 104
e 24 105
e 24 106
e 24 107
e 24 111
e 24 113
e 24 114
e 24 115
e 24 117
e 24 122
e 24 123
e 24 124
e 25 26
e 25 27
e 25 28
e 25 29
e 25 30
e 25 31
e 25 33
e 25 34
e 25 35
e 25 36
e 25 39
e 25 40
e 25 41
e 25 42
e 25 43
e 25 44
e 25 45
e 25 47
e 25 48
e 25 52
e 25 54
e 25 55
e 25 59
e 25 62
e 25 63
e 25 64
e 25 66
e 25 70
e 25 71
e 25 73
e 25 78
e 25 80
e 25 82
e 25 84
e 25 85
e 25 86
e 25 87
e 25 90
e 25 92
e 25 94
e 25 95
e 25 98
e 25 99
e 25 102
e 25 103
e 25 104
e 25 105
e 25 106
e 25 107
e 25 111
e 25 112
e 25 113
e 25 116
e 25 117
e 25 118
e 25 119
e 25 123
e 25 125
e 26 27
e 26 28
e 26 30
e 26 31
e 26 32
e 26 35
e 26 36
e 26 37
e 26 38
e 26 39
e 26 40
e 26 41
e 26 42
e 26 43
e 26 44
e 26 45
e 26 50
e 26 51
e 26 52
e 26 54
e 26 55
e 26 56
e 26 57
e 26 59
e 26 60
e 26 61
e 26 65
e 26 70
e 26 71
e 26 74
e 26 77
e 26 80
e 26 81
e 26 83
e 26 84
e 26 85
e 26 86
e 26 88
e 26 90
e 26 92
e 26 93
e 26 94
e 26 95
e 26 97
e 26 98
e 26 100
e 26 101
e 26 103
e 26 107
e 26 108
e 26 110
e 26 111
e 26 113
e 26 115
e 26 116
e 26 117
e 26 121
e 26 124
e 27 31
e 27 35
e 27 39
e 27 40
e 27 41
e 27 46
e 27 47
e 27 50
e 27 55
e 27 56
e 27 61
e 27 62
e 27 63
e 27 64
e 27 66
e 27 68
e 27 71
e 27 72
e 27 73
e 27 74
e 27 78
e 27 79
e 27 81
e 27 83
e 27 85
e 27 87
e 27 88
e 27 89
e 27 90
e 27 92
e 27 93
e 27 97
e 27 98
e 27 99
e 27 100
e 27 101
e 27 103
e 27 105
e 27 106
e 27 107
e 27 108
e 27 110
e 27 111
e 27 113
e 27 118
e 27 119
e 27 120
e 27 121
e 27 123
e 28 29
e 28 30
e 28 34
e 28 37
e 28 39
e 28 41
e 28 42
e 28 44
e 28 46
e 28 47
e 28 49
e 28 50
e 28 51
e 28 52
e 28 53
e 28 54
e 28 55
e 28 60
e 28 62
e 28 64
e 28 67
e 28 70
e 28 71
e 28 73
e 28 75
e 28 80
e 28 81
e 28 84
e 28 85
e 28 87
e 28 88
e 28 93
e 28 94
e 28 95
e 28 98
e 28 100
e 28 101
e 28 102
e 28 103
e 28 104
e 28 107
e 28 108
e 28 111
e 28 113
e 28 114
e 28 115
e 28 118
e 28 121
e 28 125
e 29 30
e 29 32
e 29 33
e 29 34
e 29 35
e 29 36
e 29 39
e 29 42
e 29 44
e 29 46
e 29 48
e 29 49
e 29 50
e 29 52
e 29 54
e 29 55
e 29 56
e 29 57
e 29 58
e 29 64
e 29 65
e 29 68
e 29 70
e 29 71
e 29 72
e 29 74
e 29 77
e 29 79
e 29 83
e 29 84
e 29 86
e 29 88
e 29 90
e 29 93
e 29 95
e 29 96
e 29 97
e 29 99
e 29 106
e 29 109
e 29 110
e 29 112
e 29 113
e 29 114
e 29 116
e 29 119
e 29 120
e 29 121
e 29 122
e 29 123
e 29 125
e 30 35
e 30 36
e 30 37
e 30 38
e 30 40
e 30 41
e 30 42
e 30 45
e 30 46
e 30 48
e 30 49
e 30 50
e 30 51
e 30 55
e 30 56
e 30 57
e 30 58
e 30 61
e 30 63
e 30 64
e 30 67
e 30 68
e 30 69
e 30 70
e 30 75
e 30 76
e 30 77
e 30 78
e 30 79
e 30 81
e 30 84
e 30 85
e 30 89
e 30 92
e 30 97
e 30 101
e 30 102
e 30 103
e 30 105
e 30 106
e 30 108
e 30 109
e 30 110
e 30 112
e 30 113
e 30 117
e 31 34
e 31 38
e 31 40
e 31 41
e 31 42
e 31 43
e 31 45
e 31 47
e 31 49
e 31 51
e 31 54
e 31 55
e 31 57
e 31 58
e 31 61
e 31 63
e 31 66
e 31 67
e 31 69
e 31 72
e 31 73
e 31 75
e 31 78
e 31 82
e 31 84
e 31 85
e 31 88
e 31 90
e 31 91
e 31 93
e 31 94
e 31 97
e 31 98
e 31 101
e 31 102
e 31 104
e 31 110
e 31 111
e 31 112
e 31 113
e 31 114
e 31 121
e 31 122
e 31 124
e 32 33
e 32 37
e 32 40
e 32 41
e 32 42
e 32 44
e 32 45
e 32 46
e 32 50
e 32 51
e 32 55
e 32 56
e 32 61
e 32 62
e 32 63
e 32 67
e 32 68
e 32 70
e 32 71
e 32 72
e 32 73
e 32 79
e 32 83
e 32 85
e 32 86
e 32 87
e 32 89
e 32 90
e 32 91
e 32 94
e 32 95
e 32 97
e 32 100
e 32 101
e 32 102
e 32 103
e 32 104
e 32 107
e 32 108
e 32 109
e 32 110
e 32 115
e 32 116
e 32 117
e 32 118
e 32 119
e 32 120
e 32 122
e 33 37
e 33 38
e 33 40
e 33 41
e 33 42
e 33 43
e 33 51
e 33 55
e 33 57
e 33 58
e 33 61
e 33 63
e 33 64
e 33 66
e 33 67
e 33 68
e 33 70
e 33 71
e 33 73
e 33 76
e 33 77
e 33 78
e 33 81
e 33 82
e 33 83
e 33 87
e 33 92
e 33 95
e 33 98
e 33 101
e 33 102
e 33 103
e 33 104
e 33 105
e 33 107
e 33 108
e 33 111
e 33 112
e 33 114
e 33 115
e 33 116
e 33 118
e 33 121
e 33 122
e 33 123
e 33 124
e 34 36
e 34 37
e 34 38
e 34 40
e 34 43
e 34 44
e 34 46
e 34 47
e 34 48
e 34 51
e 34 54
e 34 55
e 34 56
e 34 58
e 34 60
e 34 63
e 34 64
e 34 65
e 34 66
e 34 67
e 34 70
e 34 71
e 34 73
e 34 77
e 34 80
e 34 81
e 34 83
e 34 87
e 34 88
e 34 89
e 34 90
e 34 91
e 34 92
e 34 94
e 34 96
e 34 107
e 34 108
e 34 111
e 34 112
e 34 114
e 34 115
e 34 121
e 34 125
e 35 43
e 35 48
e 35 49
e 35 51
e 35 53
e 35 60
e 35 62
e 35 63
e 35 66
e 35 70
e 35 73
e 35 74
e 35 75
e 35 76
e 35 78
e 35 81
e 35 83
e 35 87
e 35 88
e 35 89
e 35 90
e 35 91
e 35 92
e 35 94
e 35 96
e 35 97
e 35 101
e 35 104
e 35 106
e 35 107
e 35 110
e 35 112
e 35 113
e 35 114
e 35 115
e 35 117
e 35 118
e 35 119
e 35 121
e 36 37
e 36 40
e 36 41
e 36 44
e 36 46
e 36 47
e 36 48
e 36 50
e 36 51
e 36 52
e 36 54
e 36 55
e 36 56
e 36 57
e 36 58
e 36 59
e 36 60
e 36 61
e 36 64
e 36 65
e 36 67
e 36 68
e 36 69
e 36 70
e 36 71
e 36 72
e 36 73
e 36 74
e 36 76
e 36 80
e 36 81
e 36 82
e 36 85
e 36 86
e 36 89
e 36 90
e 36 92
e 36 96
e 36 97
e 36 99
e 36 104
e 36 105
e 36 106
e 36 107
e 36 108
e 36 109
e 36 110
e 36 112
e 36 114
e 36 116
e 36 117
e 36 118
e 36 119
e 36 120
e 36 121
e 37 38
e 37 39
e 37 40
e 37 42
e 37 46
e 37 47
e 37 48
e 37 49
e 37 52
e 37 54
e 37 61
e 37 62
e 37 63
e 37 64
e 37 65
e 37 68
e 37 69
e 37 70
e 37 71
e 37 72
e 37 74
e 37 75
e 37 76
e 37 77
e 37 78
e 37 79
e 37 81
e 37 83
e 37 84
e 37 85
e 37 86
e 37 87
e 37 88
e 37 91
e 37 92
e 37 94
e 37 96
e 37 97
e 37 99
e 37 101
e 37 102
e 37 104
e 37 105
e 37 106
e 37 110
e 37 111
e 37 113
e 37 114
e 37 115
e 37 118
e 37 119
e 37 120
e 37 121
e 37 122
e 37 123
e 37 124
e 37 125
e 38 39
e 38 40
e 38 42
e 38 43
e 38 44
e 38 46
e 38 47
e 38 48
e 38 49
e 38 51
e 38 54
e 38 58
e 38 59
e 38 60
e 38 61
e 38 63
e 38 64
e 38 65
e 38 71
e 38 72
e 38 74
e 38 75
e 38 77
e 38 78
e 38 79
e 38 81
e 38 83
e 38 84
e 38 87
e 38 88
e 38 89
e 38 91
e 38 94
e 38 95
e 38 96
e 38 97
e 38 98
e 38 99
e 38 100
e 38 101
e 38 102
e 38 104
e 38 105
e 38 106
e 38 110
e 38 111
e 38 113
e 38 114
e 38 115
e 38 116
e 38 120
e 38 121
e 39 40
e 39 41
e 39 43
e 39 52
e 39 53
e 39 55
e 39 56
e 39 57
e 39 60
e 39 62
e 39 64
e 39 68
e 39 69
e 39 71
e 39 73
e 39 75
e 39 76
e 39 79
e 39 82
e 39 83
e 39 84
e 39 85
e 39 86
e 39 87
e 39 89
e 39 90
e 39 95
e 39 97
e 39 99
e 39 100
e 39 101
e 39 102
e 39 103
e 39 104
e 39 105
e 39 106
e 39 110
e 39 112
e 39 113
e 39 114
e 39 115
e 39 116
e 39 117
e 39 119
e 39 120
e 39 122
e 39 123
e 39 125
e 40 44
e 40 45
e 40 46
e 40 49
e 40 53
e 40 58
e 40 63
e 40 64
e 40 65
e 40 66
e 40 67
e 40 69
e 40 71
e 40 72
e 40 73
e 40 76
e 40 77
e 40 80
e 40 84
e 40 86
e 40 87
e 40 88
e 40 89
e 40 91
e 40 92
e 40 99
e 40 100
e 40 101
e 40 102
e 40 103
e 40 105
e 40 106
e 40 109
e 40 111
e 40 112
e 40 115
e 40 117
e 40 119
e 40 120
e 40 121
e 40 122
e 40 124
e 40 125
e 41 44
e 41 47
e 41 49
e 41 50
e 41 52
e 41 53
e 41 55
e 41 56
e 41 57
e 41 59
e 41 61
e 41 62
e 41 63
e 41 65
e 41 67
e 41 72
e 41 73
e 41 75
e 41 76
e 41 77
e 41 82
e 41 83
e 41 85
e 41 87
e 41 89
e 41 90
e 41 93
e 41 94
e 41 95
e 41 101
e 41 102
e 41 103
e 41 105
e 41 106
e 41 112
e 41 113
e 41 115
e 41 117
e 41 118
e 41 119
e 41 121
e 41 125
e 42 43
e 42 44
e 42 47
e 42 48
e 42 49
e 42 52
e 42 53
e 42 54
e 42 56
e 42 58
e 42 59
e 42 60
e 42 61
e 42 62
e 42 64
e 42 66
e 42 68
e 42 69
e 42 71
e 42 72
e 42 75
e 42 77
e 42 79
e 42 81
e 42 83
e 42 87
e 42 88
e 42 89
e 42 92
e 42 93
e 42 94
e 42 96
e 42 97
e 42 98
e 42 99
e 42 100
e 42 105
e 42 106
e 42 107
e 42 116
e 42 117
e 42 120
e 42 121
e 42 123
e 43 45
e 43 46
e 43 48
e 43 50
e 43 51
e 43 52
e 43 54
e 43 57
e 43 59
e 43 61
e 43 64
e 43 65
e 43 67
e 43 69
e 43 70
e 43 73
e 43 80
e 43 85
e 43 88
e 43 91
e 43 95
e 43 96
e 43 98
e 43 100
e 43 101
e 43 103
e 43 104
e 43 105
e 43 107
e 43 109
e 43 113
e 43 114
e 43 118
e 43 119
e 43 121
e 43 122
e 43 124
e 44 46
e 44 47
e 44 48
e 44 50
e 44 52
e 44 53
e 44 57
e 44 60
e 44 62
e 44 65
e 44 67
e 44 68
e 44 76
e 44 79
e 44 80
e 44 81
e 44 82
e 44 83
e 44 85
e 44 86
e 44 87
e 44 89
e 44 92
e 44 95
e 44 99
e 44 102
e 44 103
e 44 105
e 44 106
e 44 109
e 44 112
e 44 113
e 44 114
e 44 115
e 44 118
e 44 120
e 44 122
e 45 46
e 45 47
e 45 48
e 45 53
e 45 54
e 45 55
e 45 60
e 45 63
e 45 64
e 45 67
e 45 68
e 45 69
e 45 73
e 45 76
e 45 78
e 45 79
e 45 81
e 45 82
e 45 86
e 45 88
e 45 89
e 45 90
e 45 92
e 45 94
e 45 95
e 45 96
e 45 98
e 45 100
e 45 101
e 45 104
e 45 105
e 45 110
e 45 111
e 45 113
e 45 115
e 45 116
e 45 120
e 45 125
e 46 47
e 46 48
e 46 50
e 46 51
e 46 52
e 46 55
e 46 56
e 46 57
e 46 58
e 46 59
e 46 60
e 46 63
e 46 64
e 46 67
e 46 68
e 46 72
e 46 76
e 46 80
e 46 84
e 46 85
e 46 87
e 46 89
e 46 90
e 46 92
e 46 93
e 46 95
e 46 96
e 46 97
e 46 102
e 46 103
e 46 105
e 46 106
e 46 112
e 46 115
e 46 116
e 46 119
e 46 120
e 46 122
e 46 124
e 47 48
e 47 49
e 47 51
e 47 52
e 47 53
e 47 54
e 47 59
e 47 60
e 47 64
e 47 66
e 47 67
e 47 70
e 47 72
e 47 76
e 47 80
e 47 81
e 47 83
e 47 84
e 47 85
e 47 86
e 47 87
e 47 88
e 47 89
e 47 91
e 47 96
e 47 98
e 47 103
e 47 106
e 47 109
e 47 110
e 47 114
e 47 118
e 47 119
e 47 122
e 47 123
e 47 124
e 47 125
e 48 52
e 48 54
e 48 55
e 48 57
e 48 61
e 48 64
e 48 66
e 48 67
e 48 69
e 48 70
e 48 72
e 48 73
e 48 75
e 48 77
e 48 79
e 48 81
e 48 82
e 48 85
e 48 86
e 48 89
e 48 91
e 48 92
e 48 93
e 48 99
e 48 100
e 48 101
e 48 103
e 48 104
e 48 105
e 48 107
e 48 110
e 48 114
e 48 118
e 48 119
e 48 121
e 49 50
e 49 51
e 49 52
e 49 53
e 49 54
e 49 58
e 49 59
e 49 61
e 49 63
e 49 65
e 49 66
e 49 67
e 49 71
e 49 72
e 49 74
e 49 77
e 49 78
e 49 79
e 49 84
e 49 85
e 49 87
e 49 88
e 49 91
e 49 96
e 49 98
e 49 101
e 49 102
e 49 103
e 49 105
e 49 107
e 49 114
e 49 115
e 49 116
e 49 118
e 49 120
e 49 121
e 49 122
e 50 52
e 50 53
e 50 54
e 50 55
e 50 59
e 50 60
e 50 61
e 50 62
e 50 64
e 50 65
e 50 66
e 50 70
e 50 72
e 50 74
e 50 77
e 50 78
e 50 79
e 50 80
e 50 81
e 50 83
e 50 88
e 50 92
e 50 93
e 50 95
e 50 97
e 50 105
e 50 107
e 50 111
e 50 114
e 50 115
e 50 116
e 50 117
e 50 119
e 50 120
e 50 123
e 50 125
e 51 53
e 51 54
e 51 55
e 51 62
e 51 64
e 51 67
e 51 69
e 51 71
e 51 72
e 51 73
e 51 75
e 51 77
e 51 78
e 51 79
e 51 80
e 51 82
e 51 83
e 51 86
e 51 88
e 51 91
e 51 94
e 51 95
e 51 97
e 51 98
e 51 99
e 51 101
e 51 102
e 51 103
e 51 104
e 51 106
e 51 108
e 51 109
e 51 111
e 51 112
e 51 116
e 51 123
e 51 124
e 51 125
e 52 56
e 52 59
e 52 60
e 52 61
e 52 63
e 52 64
e 52 65
e 52 68
e 52 70
e 52 71
e 52 72
e 52 73
e 52 74
e 52 75
e 52 76
e 52 79
e 52 80
e 52 82
e 52 83
e 52 86
e 52 87
e 52 88
e 52 89
e 52 91
e 52 95
e 52 96
e 52 98
e 52 99
e 52 100
e 52 101
e 52 102
e 52 103
e 52 105
e 52 112
e 52 113
e 52 114
e 52 116
e 52 123
e 52 124
e 53 54
e 53 55
e 53 56
e 53 58
e 53 59
e 53 60
e 53 62
e 53 65
e 53 66
e 53 70
e 53 71
e 53 74
e 53 75
e 53 76
e 53 79
e 53 80
e 53 82
e 53 83
e 53 86
e 53 92
e 53 93
e 53 94
e 53 95
e 53 97
e 53 98
e 53 99
e 53 106
e 53 107
e 53 108
e 53 111
e 53 112
e 53 113
e 53 114
e 53 116
e 53 117
e 53 120
e 53 124
e 54 55
e 54 59
e 54 60
e 54 66
e 54 67
e 54 69
e 54 71
e 54 72
e 54 73
e 54 74
e 54 76
e 54 78
e 54 82
e 54 83
e 54 84
e 54 85
e 54 86
e 54 87
e 54 89
e 54 90
e 54 94
e 54 97
e 54 99
e 54 102
e 54 105
e 54 106
e 54 107
e 54 109
e 54 113
e 54 115
e 54 118
e 54 121
e 54 123
e 55 56
e 55 57
e 55 58
e 55 63
e 55 68
e 55 69
e 55 71
e 55 72
e 55 73
e 55 76
e 55 81
e 55 82
e 55 83
e 55 85
e 55 91
e 55 92
e 55 93
e 55 94
e 55 96
e 55 98
e 55 101
e 55 106
e 55 110
e 55 111
e 55 113
e 55 114
e 55 116
e 55 117
e 55 118
e 55 125
e 56 59
e 56 61
e 56 62
e 56 63
e 56 64
e 56 65
e 56 66
e 56 67
e 56 70
e 56 73
e 56 74
e 56 75
e 56 82
e 56 83
e 56 84
e 56 89
e 56 90
e 56 93
e 56 99
e 56 100
e 56 106
e 56 109
e 56 111
e 56 112
e 56 113
e 56 114
e 56 115
e 56 116
e 56 118
e 56 119
e 56 120
e 56 121
e 56 123
e 56 124
e 56 125
e 57 59
e 57 60
e 57 62
e 57 63
e 57 65
e 57 69
e 57 70
e 57 71
e 57 73
e 57 75
e 57 76
e 57 77
e 57 84
e 57 88
e 57 89
e 57 92
e 57 93
e 57 95
e 57 99
e 57 100
e 57 103
e 57 105
e 57 107
e 57 108
e 57 109
e 57 111
e 57 112
e 57 113
e 57 115
e 57 116
e 57 117
e 57 119
e 57 120
e 57 121
e 57 122
e 57 123
e 57 124
e 57 125
e 58 62
e 58 65
e 58 67
e 58 71
e 58 73
e 58 75
e 58 76
e 58 77
e 58 78
e 58 79
e 58 82
e 58 84
e 58 85
e 58 86
e 58 87
e 58 88
e 58 91
e 58 94
e 58 95
e 58 96
e 58 97
e 58 100
e 58 101
e 58 102
e 58 105
e 58 106
e 58 109
e 58 110
e 58 111
e 58 112
e 58 113
e 58 115
e 58 116
e 58 117
e 58 118
e 58 119
e 58 121
e 58 122
e 58 125
e 59 60
e 59 61
e 59 65
e 59 67
e 59 68
e 59 70
e 59 72
e 59 74
e 59 75
e 59 76
e 59 78
e 59 79
e 59 81
e 59 83
e 59 84
e 59 86
e 59 88
e 59 92
e 59 93
e 59 95
e 59 96
e 59 99
e 59 100
e 59 101
e 59 102
e 59 104
e 59 105
e 59 106
e 59 107
e 59 108
e 59 109
e 59 110
e 59 112
e 59 113
e 59 116
e 59 117
e 59 118
e 59 120
e 59 125
e 60 62
e 60 65
e 60 67
e 60 68
e 60 69
e 60 70
e 60 73
e 60 74
e 60 75
e 60 77
e 60 80
e 60 84
e 60 87
e 60 88
e 60 89
e 60 90
e 60 91
e 60 93
e 60 95
e 60 99
e 60 100
e 60 101
e 60 102
e 60 103
e 60 110
e 60 112
e 60 113
e 60 115
e 60 118
e 60 119
e 60 120
e 60 121
e 61 64
e 61 66
e 61 68
e 61 69
e 61 70
e 61 71
e 61 72
e 61 73
e 61 77
e 61 78
e 61 79
e 61 82
e 61 84
e 61 85
e 61 86
e 61 87
e 61 88
e 61 93
e 61 94
e 61 96
e 61 98
e 61 99
e 61 100
e 61 101
e 61 107
e 61 108
e 61 109
e 61 110
e 61 111
e 61 113
e 61 114
e 61 116
e 61 119
e 61 122
e 61 125
e 62 65
e 62 68
e 62 69
e 62 71
e 62 73
e 62 77
e 62 78
e 62 79
e 62 81
e 62 82
e 62 86
e 62 87
e 62 88
e 62 89
e 62 90
e 62 91
e 62 92
e 62 93
e 62 95
e 62 97
e 62 98
e 62 100
e 62 104
e 62 105
e 62 107
e 62 108
e 62 109
e 62 115
e 62 118
e 62 119
e 62 121
e 62 122
e 62 124
e 62 125
e 63 69
e 63 70
e 63 71
e 63 72
e 63 83
e 63 84
e 63 87
e 63 93
e 63 94
e 63 95
e 63 96
e 63 97
e 63 98
e 63 100
e 63 103
e 63 104
e 63 105
e 63 106
e 63 107
e 63 110
e 63 112
e 63 113
e 63 115
e 63 118
e 63 121
e 63 123
e 63 124
e 64 65
e 64 66
e 64 67
e 64 68
e 64 70
e 64 72
e 64 75
e 64 76
e 64 77
e 64 78
e 64 79
e 64 81
e 64 85
e 64 86
e 64 87
e 64 90
e 64 91
e 64 92
e 64 94
e 64 95
e 64 98
e 64 101
e 64 102
e 64 103
e 64 105
e 64 106
e 64 107
e 64 108
e 64 109
e 64 111
e 64 112
e 64 113
e 64 115
e 64 116
e 64 119
e 64 120
e 64 122
e 65 66
e 65 68
e 65 71
e 65 73
e 65 75
e 65 76
e 65 78
e 65 79
e 65 80
e 65 83
e 65 84
e 65 86
e 65 87
e 65 89
e 65 93
e 65 94
e 65 96
e 65 97
e 65 98
e 65 102
e 65 104
e 65 106
e 65 108
e 65 110
e 65 111
e 65 113
e 65 114
e 65 115
e 65 116
e 65 117
e 65 118
e 65 119
e 65 120
e 65 122
e 65 124
e 66 67
e 66 69
e 66 70
e 66 73
e 66 74
e 66 76
e 66 78
e 66 79
e 66 80
e 66 81
e 66 82
e 66 86
e 66 87
e 66 90
e 66 94
e 66 97
e 66 98
e 66 99
e 66 100
e 66 101
e 66 102
e 66 103
e 66 104
e 66 105
e 66 111
e 66 112
e 66 114
e 66 116
e 66 117
e 66 118
e 66 119
e 66 121
e 66 122
e 66 123
e 67 68
e 67 74
e 67 76
e 67 78
e 67 84
e 67 85
e 67 87
e 67 90
e 67 91
e 67 94
e 67 95
e 67 98
e 67 101
e 67 102
e 67 103
e 67 104
e 67 105
e 67 108
e 67 109
e 67 110
e 67 111
e 67 115
e 67 117
e 67 119
e 67 121
e 67 122
e 67 125
e 68 72
e 68 74
e 68 76
e 68 77
e 68 78
e 68 80
e 68 82
e 68 86
e 68 87
e 68 88
e 68 89
e 68 91
e 68 93
e 68 95
e 68 97
e 68 99
e 68 100
e 68 101
e 68 104
e 68 105
e 68 107
e 68 108
e 68 110
e 68 118
e 68 122
e 68 124
e 68 125
e 69 72
e 69 73
e 69 74
e 69 76
e 69 81
e 69 82
e 69 83
e 69 84
e 69 86
e 69 89
e 69 91
e 69 92
e 69 93
e 69 94
e 69 96
e 69 97
e 69 100
e 69 101
e 69 102
e 69 103
e 69 104
e 69 106
e 69 112
e 69 115
e 69 116
e 69 117
e 69 119
e 69 122
e 69 123
e 69 124
e 69 125
e 70 72
e 70 77
e 70 78
e 70 81
e 70 86
e 70 88
e 70 89
e 70 90
e 70 91
e 70 92
e 70 93
e 70 95
e 70 97
e 70 99
e 70 101
e 70 102
e 70 103
e 70 104
e 70 105
e 70 110
e 70 111
e 70 112
e 70 113
e 70 114
e 70 115
e 70 117
e 70 118
e 70 119
e 70 120
e 70 122
e 70 123
e 70 125
e 71 73
e 71 74
e 71 75
e 71 78
e 71 79
e 71 80
e 71 82
e 71 83
e 71 86
e 71 87
e 71 88
e 71 89
e 71 90
e 71 91
e 71 94
e 71 97
e 71 102
e 71 106
e 71 107
e 71 110
e 71 112
e 71 114
e 71 117
e 71 118
e 71 120
e 71 125
e 72 75
e 72 80
e 72 83
e 72 86
e 72 87
e 72 89
e 72 90
e 72 91
e 72 94
e 72 95
e 72 99
e 72 101
e 72 103
e 72 104
e 72 105
e 72 106
e 72 108
e 72 109
e 72 112
e 72 115
e 72 116
e 72 117
e 72 118
e 72 120
e 72 121
e 72 123
e 72 125
e 73 77
e 73 79
e 73 80
e 73 82
e 73 83
e 73 84
e 73 87
e 73 88
e 73 89
e 73 90
e 73 91
e 73 93
e 73 94
e 73 99
e 73 101
e 73 109
e 73 110
e 73 112
e 73 115
e 73 119
e 73 122
e 73 125
e 74 75
e 74 76
e 74 78
e 74 79
e 74 80
e 74 86
e 74 90
e 74 94
e 74 95
e 74 99
e 74 100
e 74 102
e 74 103
e 74 104
e 74 105
e 74 106
e 74 108
e 74 111
e 74 113
e 74 114
e 74 116
e 74 118
e 74 119
e 74 121
e 74 123
e 74 124
e 74 125
e 75 76
e 75 80
e 75 84
e 75 85
e 75 86
e 75 87
e 75 88
e 75 90
e 75 92
e 75 97
e 75 102
e 75 104
e 75 105
e 75 106
e 75 107
e 75 109
e 75 110
e 75 111
e 75 113
e 75 116
e 75 117
e 75 121
e 75 122
e 76 77
e 76 79
e 76 80
e 76 88
e 76 89
e 76 93
e 76 96
e 76 99
e 76 101
e 76 102
e 76 104
e 76 105
e 76 106
e 76 110
e 76 111
e 76 112
e 76 115
e 76 120
e 76 122
e 77 78
e 77 80
e 77 81
e 77 82
e 77 86
e 77 90
e 77 91
e 77 95
e 77 96
e 77 102
e 77 104
e 77 105
e 77 108
e 77 109
e 77 112
e 77 113
e 77 115
e 77 118
e 77 120
e 77 122
e 77 124
e 78 80
e 78 82
e 78 84
e 78 85
e 78 86
e 78 87
e 78 88
e 78 89
e 78 90
e 78 93
e 78 94
e 78 96
e 78 97
e 78 98
e 78 99
e 78 103
e 78 108
e 78 109
e 78 112
e 78 113
e 78 114
e 78 115
e 78 118
e 78 120
e 78 121
e 78 123
e 79 80
e 79 84
e 79 86
e 79 87
e 79 88
e 79 91
e 79 93
e 79 94
e 79 99
e 79 100
e 79 101
e 79 103
e 79 104
e 79 105
e 79 107
e 79 110
e 79 112
e 79 114
e 79 115
e 79 117
e 79 119
e 79 120
e 79 122
e 79 123
e 79 124
e 80 81
e 80 82
e 80 85
e 80 86
e 80 87
e 80 88
e 80 92
e 80 94
e 80 96
e 80 97
e 80 99
e 80 101
e 80 106
e 80 111
e 80 114
e 80 118
e 80 119
e 80 122
e 80 123
e 80 124
e 81 83
e 81 86
e 81 87
e 81 89
e 81 90
e 81 94
e 81 98
e 81 101
e 81 102
e 81 106
e 81 107
e 81 111
e 81 112
e 81 114
e 81 116
e 81 117
e 81 119
e 81 120
e 81 122
e 81 123
e 81 125
e 82 83
e 82 84
e 82 87
e 82 90
e 82 92
e 82 95
e 82 97
e 82 98
e 82 101
e 82 102
e 82 103
e 82 106
e 82 107
e 82 108
e 82 109
e 82 112
e 82 114
e 82 115
e 82 117
e 82 123
e 83 84
e 83 85
e 83 86
e 83 87
e 83 89
e 83 91
e 83 92
e 83 94
e 83 95
e 83 96
e 83 100
e 83 101
e 83 103
e 83 105
e 83 106
e 83 107
e 83 108
e 83 112
e 83 118
e 83 125
e 84 85
e 84 86
e 84 93
e 84 95
e 84 97
e 84 98
e 84 101
e 84 102
e 84 103
e 84 104
e 84 109
e 84 112
e 84 114
e 84 121
e 84 122
e 84 125
e 85 89
e 85 90
e 85 92
e 85 93
e 85 94
e 85 95
e 85 100
e 85 101
e 85 106
e 85 108
e 85 109
e 85 110
e 85 111
e 85 114
e 85 122
e 86 87
e 86 88
e 86 89
e 86 90
e 86 91
e 86 92
e 86 93
e 86 94
e 86 95
e 86 97
e 86 103
e 86 104
e 86 105
e 86 107
e 86 109
e 86 111
e 86 112
e 86 113
e 86 114
e 86 118
e 86 119
e 86 121
e 86 123
e 87 91
e 87 92
e 87 94
e 87 95
e 87 97
e 87 101
e 87 102
e 87 103
e 87 104
e 87 105
e 87 110
e 87 111
e 87 113
e 87 114
e 87 115
e 87 117
e 87 118
e 87 119
e 87 121
e 87 122
e 87 123
e 87 124
e 88 91
e 88 96
e 88 102
e 88 105
e 88 106
e 88 107
e 88 109
e 88 110
e 88 112
e 88 113
e 88 114
e 88 116
e 88 118
e 88 121
e 88 122
e 88 123
e 88 124
e 88 125
e 89 92
e 89 93
e 89 94
e 89 95
e 89 96
e 89 103
e 89 105
e 89 108
e 89 112
e 89 113
e 89 116
e 89 120
e 89 121
e 89 122
e 89 123
e 89 124
e 90 95
e 90 97
e 90 98
e 90 99
e 90 100
e 90 103
e 90 104
e 90 105
e 90 106
e 90 107
e 90 108
e 90 109
e 90 113
e 90 115
e 90 116
e 90 119
e 90 123
e 90 124
e 90 125
e 91 92
e 91 95
e 91 96
e 91 97
e 91 99
e 91 100
e 91 104
e 91 105
e 91 107
e 91 108
e 91 109
e 91 114
e 91 116
e 91 118
e 91 121
e 91 122
e 91 123
e 92 95
e 92 99
e 92 100
e 92 102
e 92 103
e 92 104
e 92 105
e 92 107
e 92 108
e 92 113
e 92 115
e 92 116
e 92 117
e 92 124
e 93 94
e 93 95
e 93 96
e 93 97
e 93 99
e 93 100
e 93 101
e 93 104
e 93 107
e 93 110
e 93 112
e 93 115
e 93 120
e 93 122
e 93 124
e 93 125
e 94 97
e 94 98
e 94 99
e 94 100
e 94 101
e 94 102
e 94 103
e 94 105
e 94 106
e 94 107
e 94 109
e 94 110
e 94 111
e 94 114
e 94 115
e 94 117
e 94 118
e 94 122
e 94 123
e 94 124
e 94 125
e 95 96
e 95 97
e 95 98
e 95 103
e 95 115
e 95 116
e 95 117
e 95 118
e 95 120
e 95 121
e 95 123
e 96 97
e 96 99
e 96 100
e 96 104
e 96 106
e 96 109
e 96 110
e 96 112
e 96 113
e 96 114
e 96 117
e 96 118
e 96 122
e 96 123
e 97 98
e 97 99
e 97 102
e 97 104
e 97 106
e 97 107
e 97 111
e 97 117
e 97 118
e 97 121
e 97 122
e 98 99
e 98 102
e 98 104
e 98 107
e 98 109
e 98 111
e 98 112
e 98 113
e 98 115
e 98 119
e 98 120
e 98 124
e 99 101
e 99 103
e 99 104
e 99 107
e 99 112
e 99 113
e 99 114
e 99 117
e 99 119
e 99 121
e 99 123
e 100 102
e 100 104
e 100 105
e 100 108
e 100 109
e 100 114
e 100 119
e 100 123
e 100 125
e 101 102
e 101 105
e 101 106
e 101 108
e 101 109
e 101 111
e 101 113
e 101 114
e 101 115
e 101 116
e 101 117
e 101 119
e 101 121
e 101 122
e 101 124
e 101 125
e 102 103
e 102 104
e 102 105
e 102 106
e 102 109
e 102 112
e 102 113
e 102 116
e 102 117
e 102 118
e 102 121
e 102 123
e 102 124
e 103 107
e 103 109
e 103 111
e 103 112
e 103 115
e 103 116
e 103 117
e 103 118
e 103 119
e 103 121
e 103 123
e 103 124
e 104 106
e 104 107
e 104 108
e 104 112
e 104 113
e 104 116
e 104 117
e 104 119
e 104 121
e 104 123
e 105 107
e 105 108
e 105 112
e 105 113
e 105 120
e 105 121
e 105 122
e 105 124
e 105 125
e 106 108
e 106 109
e 106 111
e 106 112
e 106 113
e 106 115
e 106 117
e 106 118
e 106 119
e 106 120
e 107 110
e 107 117
e 107 119
e 107 122
e 107 123
e 108 110
e 108 112
e 108 114
e 108 116
e 108 117
e 108 120
e 108 124
e 109 112
e 109 118
e 109 121
e 109 122
e 109 123
e 109 125
e 110 112
e 110 114
e 110 117
e 110 118
e 110 121
e 110 124
e 111 112
e 111 115
e 111 117
e 111 121
e 111 123
e 112 115
e 112 118
e 112 120
e 112 121
e 112 125
e 113 115
e 113 116
e 113 119
e 113 123
e 113 124
e 114 115
e 114 120
e 114 121
e 114 124
e 114 125
e 115 116
e 115 120
e 115 121
e 115 122
e 116 117
e 116 118
e 116 121
e 116 122
e 116 123
e 116 124
e 116 125
e 117 119
e 117 123
e 117 125
e 118 120
e 118 122
e 118 123
e 118 124
e 119 120
e 119 121
e 119 122
e 119 124
e 120 122
e 120 124
e 121 122
e 121 123
e 121 124
e 122 124
e 122 125
e 123 124
e 124 125
